SDVRP instances/custom_instances/p01_12_split0.vrp
NAME:p01_12_split
BEST_KNOWN: 0
COMMENT: 0
DIMENSION: 219
CAPACITY: 160
EDGE_WEIGHT_FORMAT: FUNCTION
EDGE_WEIGHT_TYPE: EXACT_2D
NODE_COORD_SECTION
1 0.00000 0.00000
2 -4 -48
3 -4 -48
4 -4 -48
5 -4 -48
6 43 37
7 43 37
8 43 37
9 43 37
10 43 -41
11 43 -41
12 43 -41
13 43 -41
14 43 -41
15 43 -41
16 43 -41
17 8 -12
18 8 -12
19 8 -12
20 8 -12
21 8 -12
22 8 -12
23 24 7
24 24 7
25 24 7
26 24 7
27 11 -1
28 11 -1
29 11 -1
30 -1 41
31 -1 41
32 -1 41
33 -1 41
34 -1 41
35 -1 41
36 26 23
37 26 23
38 26 23
39 26 23
40 26 23
41 30 24
42 5 -23
43 5 -23
44 -5 -33
45 -5 -33
46 -5 -33
47 -5 -33
48 44 -45
49 44 -45
50 44 -45
51 44 -45
52 44 -45
53 44 -45
54 -47 13
55 -47 13
56 -47 13
57 -47 13
58 -47 13
59 -36 20
60 -36 20
61 -36 20
62 -36 20
63 -49 46
64 -49 46
65 -49 46
66 -49 46
67 -27 -3
68 -27 -3
69 -27 -3
70 48 18
71 48 18
72 48 18
73 48 18
74 -14 -15
75 -14 -15
76 -14 -15
77 -7 -2
78 -7 -2
79 -7 -2
80 -7 -2
81 -7 -2
82 -48 -2
83 -48 -2
84 -48 -2
85 -20 45
86 -20 45
87 -20 45
88 -20 45
89 19 -13
90 19 -13
91 19 -13
92 19 -13
93 19 -13
94 19 -13
95 -5 37
96 -5 37
97 -5 37
98 25 30
99 25 30
100 25 30
101 25 30
102 25 30
103 25 30
104 38 -42
105 38 -42
106 38 -42
107 38 -42
108 -41 -21
109 -41 -21
110 -41 -21
111 -41 -21
112 -41 -21
113 -21 -8
114 -21 -8
115 -21 -8
116 -21 -8
117 -21 -8
118 -21 -8
119 -49 -3
120 -49 -3
121 -49 -3
122 -38 15
123 -38 15
124 -38 15
125 -38 15
126 -38 15
127 -20 -37
128 -20 -37
129 -20 -37
130 -20 -37
131 -30 -45
132 -30 -45
133 -30 -45
134 -30 -45
135 -30 -45
136 -31 33
137 -31 33
138 -31 33
139 33 -46
140 33 -46
141 33 -46
142 -1 -30
143 -1 -30
144 -1 -30
145 -1 -30
146 -1 -30
147 -27 -21
148 -27 -21
149 -27 -21
150 -26 42
151 -26 42
152 -26 42
153 -26 42
154 45 49
155 45 49
156 45 49
157 45 49
158 -26 -45
159 -26 -45
160 -26 -45
161 -26 -45
162 41 -34
163 41 -34
164 41 -34
165 41 -34
166 41 -34
167 41 -34
168 -16 47
169 -16 47
170 -16 47
171 -16 47
172 -16 47
173 9 32
174 9 32
175 9 32
176 9 32
177 9 32
178 9 32
179 9 32
180 -45 -2
181 -45 -2
182 32 7
183 32 7
184 32 7
185 32 7
186 32 7
187 32 7
188 32 7
189 -23 43
190 -23 43
191 -23 43
192 -23 43
193 -50 -39
194 -50 -39
195 -50 -39
196 -50 -39
197 -32 13
198 -32 13
199 -32 13
200 -32 13
201 -32 13
202 -32 13
203 -32 13
204 -47 -31
205 -47 -31
206 31 30
207 31 30
208 31 30
209 31 30
210 -7 45
211 -7 45
212 -7 45
213 -7 45
214 -7 45
215 -37 22
216 -37 22
217 -37 22
218 -37 22
219 -37 22
DEMAND_SECTION
1 0
2 32
3 32
4 8
5 1
6 32
7 32
8 8
9 1
10 32
11 16
12 8
13 2
14 2
15 2
16 1
17 32
18 16
19 8
20 2
21 2
22 1
23 32
24 32
25 2
26 2
27 32
28 32
29 2
30 32
31 16
32 8
33 2
34 2
35 1
36 32
37 32
38 8
39 2
40 2
41 32
42 32
43 16
44 32
45 16
46 2
47 1
48 32
49 16
50 8
51 2
52 2
53 1
54 32
55 8
56 2
57 2
58 1
59 32
60 32
61 2
62 2
63 16
64 2
65 2
66 2
67 16
68 8
69 1
70 32
71 16
72 8
73 1
74 32
75 2
76 1
77 32
78 16
79 8
80 2
81 1
82 32
83 16
84 1
85 32
86 2
87 2
88 1
89 32
90 16
91 8
92 2
93 2
94 2
95 32
96 32
97 16
98 32
99 32
100 2
101 2
102 2
103 1
104 32
105 16
106 2
107 2
108 32
109 8
110 2
111 2
112 1
113 32
114 32
115 8
116 2
117 2
118 1
119 16
120 8
121 1
122 32
123 32
124 2
125 2
126 2
127 32
128 32
129 8
130 2
131 32
132 16
133 8
134 2
135 1
136 16
137 8
138 2
139 32
140 32
141 16
142 16
143 8
144 2
145 2
146 2
147 32
148 32
149 8
150 32
151 32
152 2
153 1
154 16
155 8
156 2
157 2
158 32
159 32
160 8
161 2
162 32
163 8
164 2
165 2
166 2
167 1
168 32
169 2
170 2
171 2
172 1
173 32
174 32
175 8
176 2
177 2
178 2
179 1
180 32
181 16
182 32
183 32
184 8
185 2
186 2
187 2
188 1
189 32
190 16
191 2
192 2
193 32
194 16
195 2
196 2
197 32
198 16
199 8
200 2
201 2
202 2
203 1
204 32
205 32
206 32
207 16
208 8
209 1
210 32
211 8
212 2
213 2
214 2
215 32
216 16
217 8
218 2
219 1
DEPOT_SECTION
1
-1
EOF