SDVRP instances/custom_instances/p01_12_split0.sol
218 -17 21 41 42 1 4 2 3 144 145 143 141 -19 16 18 20 89 88 28 27 26 -22 23 24 25 181 183 182 187 185 186 184 -31 29 33 32 30 34 96 95 94 -35 39 38 36 37 178 173 177 176 172 174 175 -40 207 205 208 206 97 98 102 100 99 101 -56 55 53 54 57 124 123 121 125 122 196 198 200 -68 66 67 119 118 120 81 82 83 179 180 -69 71 70 72 7 8 6 5 155 154 156 153 -74 73 75 126 129 127 45 46 43 44 142 -79 76 77 78 80 -93 91 92 90 14 15 9 13 10 11 12 140 138 139 -106 105 103 104 51 49 52 47 48 50 163 162 164 161 165 166 -107 109 108 204 203 195 194 192 193 -111 110 131 134 132 130 133 157 159 158 160 128 -115 112 117 114 116 113 147 146 148 -136 137 135 64 65 63 62 151 152 149 150 190 188 191 -189 85 86 84 87 171 169 167 170 168 209 211 210 213 212 -202 201 199 197 59 60 61 58 218 215 214 216 217 0 





OBJ=
1860.750
BEST_KNOWN=
0.000